100
125
87
87
84
83
81
81
78
77
77
77
76
75
75
74
73
73
73
72
72
71
71
69
69
68
67
66
66
65
65
65
64
63
62
60
60
59
59
58
58
58
57
56
55
55
52
52
51
50
49
49
49
44
44
44
43
42
41
40
40
40
40
39
37
36
36
35
35
34
33
33
33
32
32
31
31
30
30
29
28
28
27
26
26
25
25
23
23
23
22
20
18
15
14
14
14
14
13
13
12
12
